TYPE : TSP
DIMENSION: 19
EDGE_DATA_FORMAT: EDGE_LIST
EDGE_WEIGHT_TYPE: EXPLICIT
EDGE_WEIGHT_FORMAT: FULL_MATRIX 
EDGE_DATA_SECTION
0 1
0 2
0 3
0 4
0 5
0 6
0 7
0 8
0 9
1 3
1 4
1 5
1 9
1 10
1 11
1 12
1 13
1 14
2 1
2 3
2 6
2 7
2 10
2 11
2 12
2 16
2 18
3 4
3 6
3 7
3 8
3 10
3 12
3 13
3 15
3 17
4 2
4 5
4 7
4 9
4 12
4 13
4 15
4 16
4 18
5 2
5 3
5 7
5 8
5 11
5 13
5 14
5 16
5 17
6 1
6 4
6 5
6 8
6 12
6 14
6 16
6 17
6 18
7 1
7 6
7 8
7 9
7 11
7 13
7 14
7 15
7 18
8 1
8 2
8 4
8 9
8 10
8 11
8 15
8 16
8 17
9 2
9 3
9 5
9 6
9 10
9 14
9 15
9 17
9 18
10 0
10 4
10 5
10 6
10 7
10 11
10 14
10 15
10 16
11 0
11 3
11 4
11 6
11 9
11 13
11 16
11 17
11 18
12 0
12 5
12 7
12 8
12 9
12 10
12 11
12 17
12 18
13 0
13 2
13 6
13 8
13 9
13 10
13 12
13 14
13 16
14 0
14 2
14 3
14 4
14 8
14 11
14 12
14 15
14 18
15 0
15 1
15 2
15 5
15 6
15 11
15 12
15 13
15 17
16 0
16 1
16 3
16 7
16 9
16 12
16 14
16 15
16 17
17 0
17 1
17 2
17 4
17 7
17 10
17 13
17 14
17 18
18 0
18 1
18 3
18 5
18 8
18 10
18 13
18 15
18 16
-1
EDGE_WEIGHT_SECTION
0.0	1.0	1.0	1.0	1.0	1.0	1.0	1.0	1.0	1.0	0.0	0.0	0.0	0.0	0.0	0.0	0.0	0.0	0.0
0.0	0.0	0.0	1.0	1.0	1.0	0.0	0.0	0.0	1.0	1.0	1.0	1.0	1.0	1.0	0.0	0.0	0.0	0.0
0.0	1.0	0.0	1.0	0.0	0.0	1.0	1.0	0.0	0.0	1.0	1.0	1.0	0.0	0.0	0.0	1.0	0.0	1.0
0.0	0.0	0.0	0.0	1.0	0.0	1.0	1.0	1.0	0.0	1.0	0.0	1.0	1.0	0.0	1.0	0.0	1.0	0.0
0.0	0.0	1.0	0.0	0.0	1.0	0.0	1.0	0.0	1.0	0.0	0.0	1.0	1.0	0.0	1.0	1.0	0.0	1.0
0.0	0.0	1.0	1.0	0.0	0.0	0.0	1.0	1.0	0.0	0.0	1.0	0.0	1.0	1.0	0.0	1.0	1.0	0.0
0.0	1.0	0.0	0.0	1.0	1.0	0.0	0.0	1.0	0.0	0.0	0.0	1.0	0.0	1.0	0.0	1.0	1.0	1.0
0.0	1.0	0.0	0.0	0.0	0.0	1.0	0.0	1.0	1.0	0.0	1.0	0.0	1.0	1.0	1.0	0.0	0.0	1.0
0.0	1.0	1.0	0.0	1.0	0.0	0.0	0.0	0.0	1.0	1.0	1.0	0.0	0.0	0.0	1.0	1.0	1.0	0.0
0.0	0.0	1.0	1.0	0.0	1.0	1.0	0.0	0.0	0.0	1.0	0.0	0.0	0.0	1.0	1.0	0.0	1.0	1.0
1.0	0.0	0.0	0.0	1.0	1.0	1.0	1.0	0.0	0.0	0.0	1.0	0.0	0.0	1.0	1.0	1.0	0.0	0.0
1.0	0.0	0.0	1.0	1.0	0.0	1.0	0.0	0.0	1.0	0.0	0.0	0.0	1.0	0.0	0.0	1.0	1.0	1.0
1.0	0.0	0.0	0.0	0.0	1.0	0.0	1.0	1.0	1.0	1.0	1.0	0.0	0.0	0.0	0.0	0.0	1.0	1.0
1.0	0.0	1.0	0.0	0.0	0.0	1.0	0.0	1.0	1.0	1.0	0.0	1.0	0.0	1.0	0.0	1.0	0.0	0.0
1.0	0.0	1.0	1.0	1.0	0.0	0.0	0.0	1.0	0.0	0.0	1.0	1.0	0.0	0.0	1.0	0.0	0.0	1.0
1.0	1.0	1.0	0.0	0.0	1.0	1.0	0.0	0.0	0.0	0.0	1.0	1.0	1.0	0.0	0.0	0.0	1.0	0.0
1.0	1.0	0.0	1.0	0.0	0.0	0.0	1.0	0.0	1.0	0.0	0.0	1.0	0.0	1.0	1.0	0.0	1.0	0.0
1.0	1.0	1.0	0.0	1.0	0.0	0.0	1.0	0.0	0.0	1.0	0.0	0.0	1.0	1.0	0.0	0.0	0.0	1.0
1.0	1.0	0.0	1.0	0.0	1.0	0.0	0.0	1.0	0.0	1.0	0.0	0.0	1.0	0.0	1.0	1.0	0.0	0.0
DIFF_EDGE
0 0
CHROM_NUMBER
6
EOF
